p cnf 1602
-24 -500
-25 -503
-26 -506
-27 -509
-28 -512
-29 -515
-30 -518
-31 -521
-32 -524
-33 -527
-34 -530
-35 -533
-36 -536
-37 -539
-38 -542
-39 -545
-40 -548
-41 -551
-42 -554
-43 -557
-44 -560
-45 -563
-46 -566
-47 567
-48 568
-49 569
-50 570
-51 571
-52 572
-53 573
-54 574
-55 575
-56 576
-57 577
-58 578
-59 -25
-59 -26
25 26 59
-60 -27
-60 -28
27 28 60
-61 -29
-61 -30
29 30 61
-62 -31
-62 -32
31 32 62
-63 -33
-63 -34
33 34 63
-64 -35
-64 -36
35 36 64
-65 -37
-65 -38
37 38 65
-66 -39
-66 -40
39 40 66
-67 -41
-67 -42
41 42 67
-68 -43
-68 -44
43 44 68
-69 -45
-69 -46
45 46 69
-70 -47
-70 -48
47 48 70
-71 -49
-71 -50
49 50 71
-72 -51
-72 -52
51 52 72
-73 -53
-73 -54
53 54 73
-74 -55
-74 -56
55 56 74
-75 -57
-75 -58
57 58 75
-76 59
-76 60
-59 -60 76
-77 61
-77 62
-61 -62 77
-78 63
-78 64
-63 -64 78
-79 65
-79 66
-65 -66 79
-80 67
-80 68
-67 -68 80
-81 69
-81 70
-69 -70 81
-82 71
-82 72
-71 -72 82
-83 73
-83 74
-73 -74 83
-84 76
-84 77
-76 -77 84
-85 78
-85 79
-78 -79 85
-86 80
-86 81
-80 -81 86
-87 82
-87 83
-82 -83 87
-88 84
-88 85
-84 -85 88
-89 86
-89 87
-86 -87 89
-90 88
-90 89
-88 -89 90
-91 75
-91 90
-75 -90 91
-92 -24
-92 25
24 -25 92
-93 24
-93 -25
-24 25 93
-94 -92
-94 -93
92 93 94
-95 24
-95 25
-24 -25 95
-96 -24
-96 -94
24 94 96
-97 24
-97 94
-24 -94 97
-98 -96
-98 -97
96 97 98
-99 24
-99 -94
-24 94 99
-100 -95
-100 -99
95 99 100
-101 -25
-101 26
25 -26 101
-102 25
-102 -26
-25 26 102
-103 -101
-103 -102
101 102 103
-104 25
-104 26
-25 -26 104
-105 100
-105 -103
-100 103 105
-106 -100
-106 103
100 -103 106
-107 -105
-107 -106
105 106 107
-108 -100
-108 -103
100 103 108
-109 -104
-109 -108
104 108 109
-110 -26
-110 27
26 -27 110
-111 26
-111 -27
-26 27 111
-112 -110
-112 -111
110 111 112
-113 26
-113 27
-26 -27 113
-114 109
-114 -112
-109 112 114
-115 -109
-115 112
109 -112 115
-116 -114
-116 -115
114 115 116
-117 -109
-117 -112
109 112 117
-118 -113
-118 -117
113 117 118
-119 -27
-119 28
27 -28 119
-120 27
-120 -28
-27 28 120
-121 -119
-121 -120
119 120 121
-122 27
-122 28
-27 -28 122
-123 118
-123 -121
-118 121 123
-124 -118
-124 121
118 -121 124
-125 -123
-125 -124
123 124 125
-126 -118
-126 -121
118 121 126
-127 -122
-127 -126
122 126 127
-128 -28
-128 29
28 -29 128
-129 28
-129 -29
-28 29 129
-130 -128
-130 -129
128 129 130
-131 28
-131 29
-28 -29 131
-132 127
-132 -130
-127 130 132
-133 -127
-133 130
127 -130 133
-134 -132
-134 -133
132 133 134
-135 -127
-135 -130
127 130 135
-136 -131
-136 -135
131 135 136
-137 -29
-137 30
29 -30 137
-138 29
-138 -30
-29 30 138
-139 -137
-139 -138
137 138 139
-140 29
-140 30
-29 -30 140
-141 136
-141 -139
-136 139 141
-142 -136
-142 139
136 -139 142
-143 -141
-143 -142
141 142 143
-144 -136
-144 -139
136 139 144
-145 -140
-145 -144
140 144 145
-146 -30
-146 31
30 -31 146
-147 30
-147 -31
-30 31 147
-148 -146
-148 -147
146 147 148
-149 30
-149 31
-30 -31 149
-150 145
-150 -148
-145 148 150
-151 -145
-151 148
145 -148 151
-152 -150
-152 -151
150 151 152
-153 -145
-153 -148
145 148 153
-154 -149
-154 -153
149 153 154
-155 -31
-155 32
31 -32 155
-156 31
-156 -32
-31 32 156
-157 -155
-157 -156
155 156 157
-158 31
-158 32
-31 -32 158
-159 154
-159 -157
-154 157 159
-160 -154
-160 157
154 -157 160
-161 -159
-161 -160
159 160 161
-162 -154
-162 -157
154 157 162
-163 -158
-163 -162
158 162 163
-164 -32
-164 33
32 -33 164
-165 32
-165 -33
-32 33 165
-166 -164
-166 -165
164 165 166
-167 32
-167 33
-32 -33 167
-168 163
-168 -166
-163 166 168
-169 -163
-169 166
163 -166 169
-170 -168
-170 -169
168 169 170
-171 -163
-171 -166
163 166 171
-172 -167
-172 -171
167 171 172
-173 -33
-173 34
33 -34 173
-174 33
-174 -34
-33 34 174
-175 -173
-175 -174
173 174 175
-176 33
-176 34
-33 -34 176
-177 172
-177 -175
-172 175 177
-178 -172
-178 175
172 -175 178
-179 -177
-179 -178
177 178 179
-180 -172
-180 -175
172 175 180
-181 -176
-181 -180
176 180 181
-182 -34
-182 35
34 -35 182
-183 34
-183 -35
-34 35 183
-184 -182
-184 -183
182 183 184
-185 34
-185 35
-34 -35 185
-186 181
-186 -184
-181 184 186
-187 -181
-187 184
181 -184 187
-188 -186
-188 -187
186 187 188
-189 -181
-189 -184
181 184 189
-190 -185
-190 -189
185 189 190
-191 -35
-191 36
35 -36 191
-192 35
-192 -36
-35 36 192
-193 -191
-193 -192
191 192 193
-194 35
-194 36
-35 -36 194
-195 190
-195 -193
-190 193 195
-196 -190
-196 193
190 -193 196
-197 -195
-197 -196
195 196 197
-198 -190
-198 -193
190 193 198
-199 -194
-199 -198
194 198 199
-200 -36
-200 37
36 -37 200
-201 36
-201 -37
-36 37 201
-202 -200
-202 -201
200 201 202
-203 36
-203 37
-36 -37 203
-204 199
-204 -202
-199 202 204
-205 -199
-205 202
199 -202 205
-206 -204
-206 -205
204 205 206
-207 -199
-207 -202
199 202 207
-208 -203
-208 -207
203 207 208
-209 -37
-209 38
37 -38 209
-210 37
-210 -38
-37 38 210
-211 -209
-211 -210
209 210 211
-212 37
-212 38
-37 -38 212
-213 208
-213 -211
-208 211 213
-214 -208
-214 211
208 -211 214
-215 -213
-215 -214
213 214 215
-216 -208
-216 -211
208 211 216
-217 -212
-217 -216
212 216 217
-218 -38
-218 39
38 -39 218
-219 38
-219 -39
-38 39 219
-220 -218
-220 -219
218 219 220
-221 38
-221 39
-38 -39 221
-222 217
-222 -220
-217 220 222
-223 -217
-223 220
217 -220 223
-224 -222
-224 -223
222 223 224
-225 -217
-225 -220
217 220 225
-226 -221
-226 -225
221 225 226
-227 -39
-227 40
39 -40 227
-228 39
-228 -40
-39 40 228
-229 -227
-229 -228
227 228 229
-230 39
-230 40
-39 -40 230
-231 226
-231 -229
-226 229 231
-232 -226
-232 229
226 -229 232
-233 -231
-233 -232
231 232 233
-234 -226
-234 -229
226 229 234
-235 -230
-235 -234
230 234 235
-236 -40
-236 41
40 -41 236
-237 40
-237 -41
-40 41 237
-238 -236
-238 -237
236 237 238
-239 40
-239 41
-40 -41 239
-240 235
-240 -238
-235 238 240
-241 -235
-241 238
235 -238 241
-242 -240
-242 -241
240 241 242
-243 -235
-243 -238
235 238 243
-244 -239
-244 -243
239 243 244
-245 -41
-245 42
41 -42 245
-246 41
-246 -42
-41 42 246
-247 -245
-247 -246
245 246 247
-248 41
-248 42
-41 -42 248
-249 244
-249 -247
-244 247 249
-250 -244
-250 247
244 -247 250
-251 -249
-251 -250
249 250 251
-252 -244
-252 -247
244 247 252
-253 -248
-253 -252
248 252 253
-254 -42
-254 43
42 -43 254
-255 42
-255 -43
-42 43 255
-256 -254
-256 -255
254 255 256
-257 42
-257 43
-42 -43 257
-258 253
-258 -256
-253 256 258
-259 -253
-259 256
253 -256 259
-260 -258
-260 -259
258 259 260
-261 -253
-261 -256
253 256 261
-262 -257
-262 -261
257 261 262
-263 -43
-263 44
43 -44 263
-264 43
-264 -44
-43 44 264
-265 -263
-265 -264
263 264 265
-266 43
-266 44
-43 -44 266
-267 262
-267 -265
-262 265 267
-268 -262
-268 265
262 -265 268
-269 -267
-269 -268
267 268 269
-270 -262
-270 -265
262 265 270
-271 -266
-271 -270
266 270 271
-272 -44
-272 45
44 -45 272
-273 44
-273 -45
-44 45 273
-274 -272
-274 -273
272 273 274
-275 44
-275 45
-44 -45 275
-276 271
-276 -274
-271 274 276
-277 -271
-277 274
271 -274 277
-278 -276
-278 -277
276 277 278
-279 -271
-279 -274
271 274 279
-280 -275
-280 -279
275 279 280
-281 -45
-281 46
45 -46 281
-282 45
-282 -46
-45 46 282
-283 -281
-283 -282
281 282 283
-284 45
-284 46
-45 -46 284
-285 280
-285 -283
-280 283 285
-286 -280
-286 283
280 -283 286
-287 -285
-287 -286
285 286 287
-288 -280
-288 -283
280 283 288
-289 -284
-289 -288
284 288 289
-290 -46
-290 47
46 -47 290
-291 46
-291 -47
-46 47 291
-292 -290
-292 -291
290 291 292
-293 46
-293 47
-46 -47 293
-294 289
-294 -292
-289 292 294
-295 -289
-295 292
289 -292 295
-296 -294
-296 -295
294 295 296
-297 -289
-297 -292
289 292 297
-298 -293
-298 -297
293 297 298
-299 -47
-299 48
47 -48 299
-300 47
-300 -48
-47 48 300
-301 -299
-301 -300
299 300 301
-302 47
-302 48
-47 -48 302
-303 298
-303 -301
-298 301 303
-304 -298
-304 301
298 -301 304
-305 -303
-305 -304
303 304 305
-306 -298
-306 -301
298 301 306
-307 -302
-307 -306
302 306 307
-308 -48
-308 49
48 -49 308
-309 48
-309 -49
-48 49 309
-310 -308
-310 -309
308 309 310
-311 48
-311 49
-48 -49 311
-312 307
-312 -310
-307 310 312
-313 -307
-313 310
307 -310 313
-314 -312
-314 -313
312 313 314
-315 -307
-315 -310
307 310 315
-316 -311
-316 -315
311 315 316
-317 -49
-317 50
49 -50 317
-318 49
-318 -50
-49 50 318
-319 -317
-319 -318
317 318 319
-320 49
-320 50
-49 -50 320
-321 316
-321 -319
-316 319 321
-322 -316
-322 319
316 -319 322
-323 -321
-323 -322
321 322 323
-324 -316
-324 -319
316 319 324
-325 -320
-325 -324
320 324 325
-326 -50
-326 51
50 -51 326
-327 50
-327 -51
-50 51 327
-328 -326
-328 -327
326 327 328
-329 50
-329 51
-50 -51 329
-330 325
-330 -328
-325 328 330
-331 -325
-331 328
325 -328 331
-332 -330
-332 -331
330 331 332
-333 -325
-333 -328
325 328 333
-334 -329
-334 -333
329 333 334
-335 -51
-335 52
51 -52 335
-336 51
-336 -52
-51 52 336
-337 -335
-337 -336
335 336 337
-338 51
-338 52
-51 -52 338
-339 334
-339 -337
-334 337 339
-340 -334
-340 337
334 -337 340
-341 -339
-341 -340
339 340 341
-342 -334
-342 -337
334 337 342
-343 -338
-343 -342
338 342 343
-344 -52
-344 53
52 -53 344
-345 52
-345 -53
-52 53 345
-346 -344
-346 -345
344 345 346
-347 52
-347 53
-52 -53 347
-348 343
-348 -346
-343 346 348
-349 -343
-349 346
343 -346 349
-350 -348
-350 -349
348 349 350
-351 -343
-351 -346
343 346 351
-352 -347
-352 -351
347 351 352
-353 -53
-353 54
53 -54 353
-354 53
-354 -54
-53 54 354
-355 -353
-355 -354
353 354 355
-356 53
-356 54
-53 -54 356
-357 352
-357 -355
-352 355 357
-358 -352
-358 355
352 -355 358
-359 -357
-359 -358
357 358 359
-360 -352
-360 -355
352 355 360
-361 -356
-361 -360
356 360 361
-362 -54
-362 55
54 -55 362
-363 54
-363 -55
-54 55 363
-364 -362
-364 -363
362 363 364
-365 54
-365 55
-54 -55 365
-366 361
-366 -364
-361 364 366
-367 -361
-367 364
361 -364 367
-368 -366
-368 -367
366 367 368
-369 -361
-369 -364
361 364 369
-370 -365
-370 -369
365 369 370
-371 -55
-371 56
55 -56 371
-372 55
-372 -56
-55 56 372
-373 -371
-373 -372
371 372 373
-374 55
-374 56
-55 -56 374
-375 370
-375 -373
-370 373 375
-376 -370
-376 373
370 -373 376
-377 -375
-377 -376
375 376 377
-378 -370
-378 -373
370 373 378
-379 -374
-379 -378
374 378 379
-380 -56
-380 57
56 -57 380
-381 56
-381 -57
-56 57 381
-382 -380
-382 -381
380 381 382
-383 56
-383 57
-56 -57 383
-384 379
-384 -382
-379 382 384
-385 -379
-385 382
379 -382 385
-386 -384
-386 -385
384 385 386
-387 -379
-387 -382
379 382 387
-388 -383
-388 -387
383 387 388
-389 -57
-389 58
57 -58 389
-390 57
-390 -58
-57 58 390
-391 -389
-391 -390
389 390 391
-392 57
-392 58
-57 -58 392
-393 388
-393 -391
-388 391 393
-394 -388
-394 391
388 -391 394
-395 -393
-395 -394
393 394 395
-396 -388
-396 -391
388 391 396
-397 -392
-397 -396
392 396 397
-398 24
-398 -98
-24 98 398
-399 -24
-399 26
24 -26 399
-400 -398
-400 -399
398 399 400
-401 24
-401 -107
-24 107 401
-402 -24
-402 27
24 -27 402
-403 -401
-403 -402
401 402 403
-404 24
-404 -116
-24 116 404
-405 -24
-405 28
24 -28 405
-406 -404
-406 -405
404 405 406
-407 24
-407 -125
-24 125 407
-408 -24
-408 29
24 -29 408
-409 -407
-409 -408
407 408 409
-410 24
-410 -134
-24 134 410
-411 -24
-411 30
24 -30 411
-412 -410
-412 -411
410 411 412
-413 24
-413 -143
-24 143 413
-414 -24
-414 31
24 -31 414
-415 -413
-415 -414
413 414 415
-416 24
-416 -152
-24 152 416
-417 -24
-417 32
24 -32 417
-418 -416
-418 -417
416 417 418
-419 24
-419 -161
-24 161 419
-420 -24
-420 33
24 -33 420
-421 -419
-421 -420
419 420 421
-422 24
-422 -170
-24 170 422
-423 -24
-423 34
24 -34 423
-424 -422
-424 -423
422 423 424
-425 24
-425 -179
-24 179 425
-426 -24
-426 35
24 -35 426
-427 -425
-427 -426
425 426 427
-428 24
-428 -188
-24 188 428
-429 -24
-429 36
24 -36 429
-430 -428
-430 -429
428 429 430
-431 24
-431 -197
-24 197 431
-432 -24
-432 37
24 -37 432
-433 -431
-433 -432
431 432 433
-434 24
-434 -206
-24 206 434
-435 -24
-435 38
24 -38 435
-436 -434
-436 -435
434 435 436
-437 24
-437 -215
-24 215 437
-438 -24
-438 39
24 -39 438
-439 -437
-439 -438
437 438 439
-440 24
-440 -224
-24 224 440
-441 -24
-441 40
24 -40 441
-442 -440
-442 -441
440 441 442
-443 24
-443 -233
-24 233 443
-444 -24
-444 41
24 -41 444
-445 -443
-445 -444
443 444 445
-446 24
-446 -242
-24 242 446
-447 -24
-447 42
24 -42 447
-448 -446
-448 -447
446 447 448
-449 24
-449 -251
-24 251 449
-450 -24
-450 43
24 -43 450
-451 -449
-451 -450
449 450 451
-452 24
-452 -260
-24 260 452
-453 -24
-453 44
24 -44 453
-454 -452
-454 -453
452 453 454
-455 24
-455 -269
-24 269 455
-456 -24
-456 45
24 -45 456
-457 -455
-457 -456
455 456 457
-458 24
-458 -278
-24 278 458
-459 -24
-459 46
24 -46 459
-460 -458
-460 -459
458 459 460
-461 24
-461 -287
-24 287 461
-462 -24
-462 47
24 -47 462
-463 -461
-463 -462
461 462 463
-464 24
-464 -296
-24 296 464
-465 -24
-465 48
24 -48 465
-466 -464
-466 -465
464 465 466
-467 24
-467 -305
-24 305 467
-468 -24
-468 49
24 -49 468
-469 -467
-469 -468
467 468 469
-470 24
-470 -314
-24 314 470
-471 -24
-471 50
24 -50 471
-472 -470
-472 -471
470 471 472
-473 24
-473 -323
-24 323 473
-474 -24
-474 51
24 -51 474
-475 -473
-475 -474
473 474 475
-476 24
-476 -332
-24 332 476
-477 -24
-477 52
24 -52 477
-478 -476
-478 -477
476 477 478
-479 24
-479 -341
-24 341 479
-480 -24
-480 53
24 -53 480
-481 -479
-481 -480
479 480 481
-482 24
-482 -350
-24 350 482
-483 -24
-483 54
24 -54 483
-484 -482
-484 -483
482 483 484
-485 24
-485 -359
-24 359 485
-486 -24
-486 55
24 -55 486
-487 -485
-487 -486
485 486 487
-488 24
-488 -368
-24 368 488
-489 -24
-489 56
24 -56 489
-490 -488
-490 -489
488 489 490
-491 24
-491 -377
-24 377 491
-492 -24
-492 57
24 -57 492
-493 -491
-493 -492
491 492 493
-494 24
-494 -386
-24 386 494
-495 -24
-495 58
24 -58 495
-496 -494
-496 -495
494 495 496
-497 24
-497 -395
-24 395 497
-498 1
-498 91
-1 -91 498
-499 -91
-499 92
91 -92 499
-500 -498
-500 -499
498 499 500
-501 2
-501 91
-2 -91 501
-502 -91
-502 -400
91 400 502
-503 -501
-503 -502
501 502 503
-504 3
-504 91
-3 -91 504
-505 -91
-505 -403
91 403 505
-506 -504
-506 -505
504 505 506
-507 4
-507 91
-4 -91 507
-508 -91
-508 -406
91 406 508
-509 -507
-509 -508
507 508 509
-510 5
-510 91
-5 -91 510
-511 -91
-511 -409
91 409 511
-512 -510
-512 -511
510 511 512
-513 6
-513 91
-6 -91 513
-514 -91
-514 -412
91 412 514
-515 -513
-515 -514
513 514 515
-516 7
-516 91
-7 -91 516
-517 -91
-517 -415
91 415 517
-518 -516
-518 -517
516 517 518
-519 8
-519 91
-8 -91 519
-520 -91
-520 -418
91 418 520
-521 -519
-521 -520
519 520 521
-522 9
-522 91
-9 -91 522
-523 -91
-523 -421
91 421 523
-524 -522
-524 -523
522 523 524
-525 10
-525 91
-10 -91 525
-526 -91
-526 -424
91 424 526
-527 -525
-527 -526
525 526 527
-528 11
-528 91
-11 -91 528
-529 -91
-529 -427
91 427 529
-530 -528
-530 -529
528 529 530
-531 12
-531 91
-12 -91 531
-532 -91
-532 -430
91 430 532
-533 -531
-533 -532
531 532 533
-534 13
-534 91
-13 -91 534
-535 -91
-535 -433
91 433 535
-536 -534
-536 -535
534 535 536
-537 14
-537 91
-14 -91 537
-538 -91
-538 -436
91 436 538
-539 -537
-539 -538
537 538 539
-540 15
-540 91
-15 -91 540
-541 -91
-541 -439
91 439 541
-542 -540
-542 -541
540 541 542
-543 16
-543 91
-16 -91 543
-544 -91
-544 -442
91 442 544
-545 -543
-545 -544
543 544 545
-546 17
-546 91
-17 -91 546
-547 -91
-547 -445
91 445 547
-548 -546
-548 -547
546 547 548
-549 18
-549 91
-18 -91 549
-550 -91
-550 -448
91 448 550
-551 -549
-551 -550
549 550 551
-552 19
-552 91
-19 -91 552
-553 -91
-553 -451
91 451 553
-554 -552
-554 -553
552 553 554
-555 20
-555 91
-20 -91 555
-556 -91
-556 -454
91 454 556
-557 -555
-557 -556
555 556 557
-558 21
-558 91
-21 -91 558
-559 -91
-559 -457
91 457 559
-560 -558
-560 -559
558 559 560
-561 22
-561 91
-22 -91 561
-562 -91
-562 -460
91 460 562
-563 -561
-563 -562
561 562 563
-564 23
-564 91
-23 -91 564
-565 -91
-565 -463
91 463 565
-566 -564
-566 -565
564 565 566
-567 -91
-567 -466
91 466 567
-568 -91
-568 -469
91 469 568
-569 -91
-569 -472
91 472 569
-570 -91
-570 -475
91 475 570
-571 -91
-571 -478
91 478 571
-572 -91
-572 -481
91 481 572
-573 -91
-573 -484
91 484 573
-574 -91
-574 -487
91 487 574
-575 -91
-575 -490
91 490 575
-576 -91
-576 -493
91 493 576
-577 -91
-577 -496
91 496 577
-578 -91
-578 497
91 -497 578
-579 -58
-579 397
58 -397 579
-580 24
-580 -579
-24 579 580
580
